131
1
6
17
16
15
14
12
5
13
18
25
19
27
26
45
53
74
89
93
98
112
123
130
121
118
114
105
100
101
102
106
124
125
126
131
127
128
129
122
117
120
116
119
115
108
113
107
99
92
94
109
110
111
103
104
97
96
95
90
91
72
73
61
60
59
58
57
56
52
51
50
49
48
47
55
62
65
69
70
66
63
67
71
76
79
80
86
85
84
83
88
87
82
81
78
77
75
68
64
54
46
28
29
20
30
31
32
21
33
34
35
22
36
37
38
39
40
41
42
43
44
24
23
11
4
10
9
3
2
8
7
